c User generated cnf file
p cnf 14 63
-6 4 12 0 
12 -10 13 0 
-3 9 2 0 
8 11 -13 0 
13 -4 5 0 
-3 8 1 0 
-9 8 7 0 
13 -11 5 0 
-5 10 1 0 
-2 11 11 0 
6 5 -10 0 
10 -12 6 0 
6 -1 12 0 
3 -9 12 0 
-3 10 11 0 
1 -13 3 0 
7 -14 13 0 
5 -7 3 0 
5 -11 10 0 
-12 13 14 0 
4 -4 3 0 
6 -11 7 0 
3 6 -2 0 
13 -2 12 0 
-13 11 14 0 
12 4 -11 0 
-8 4 14 0 
-5 3 10 0 
5 -4 11 0 
10 11 -1 0 
-11 14 1 0 
11 -5 14 0 
8 11 -4 0 
-13 7 2 0 
-4 13 9 0 
4 14 -6 0 
5 5 -9 0 
10 -10 1 0 
-14 11 11 0 
-11 11 8 0 
12 4 -9 0 
12 -2 11 0 
14 -7 6 0 
4 -14 12 0 
-6 10 8 0 
12 -3 9 0 
9 -14 3 0 
-8 9 9 0 
9 -8 11 0 
-13 11 11 0 
-9 5 5 0 
4 13 -2 0 
-13 11 13 0 
-14 3 3 0 
-12 14 4 0 
10 -1 9 0 
2 9 -8 0 
2 -11 9 0 
-7 6 6 0 
-5 12 11 0 
-14 8 12 0 
6 13 -2 0 
-12 5 6 0 
